db/inputs/16742674527630184717998200492635422835.smt2
(set-logic QF_FP)
(declare-const x0 (_ FloatingPoint 11 53))
(declare-const x1 (_ FloatingPoint 11 53))
(declare-const x2 (_ FloatingPoint 11 53))
(declare-const x3 (_ FloatingPoint 11 53))
(declare-const x4 (_ FloatingPoint 11 53))
(declare-const x5 (_ FloatingPoint 11 53))
(declare-const x6 (_ FloatingPoint 11 53))
(declare-const x7 (_ FloatingPoint 11 53))
(declare-const x8 (_ FloatingPoint 11 53))
(declare-const x9 (_ FloatingPoint 11 53))
(declare-const x10 (_ FloatingPoint 11 53))
(declare-const x11 (_ FloatingPoint 11 53))
(declare-const x12 (_ FloatingPoint 11 53))
(declare-const x13 (_ FloatingPoint 11 53))
(declare-const x14 (_ FloatingPoint 11 53))
(declare-const x15 (_ FloatingPoint 11 53))
(assert (fp.geq (fp.add RNE (fp.neg x3) (fp.sub RNE x13 x5)) (fp.add RNE (fp.add RNE x15 x8) (fp.div RNE x3 x6))))
(assert (fp.leq (fp.div RNE (fp.neg x8) (fp.sub RNE x8 x8)) (fp.mul RNE (fp.div RNE x7 x3) (fp.sub RNE x3 x1))))
(assert (fp.geq (fp.div RNE (fp.add RNE x7 x2) (fp.neg x11)) (fp.sub RNE (fp.neg x3) (fp.sub RNE x14 x10))))
(assert (fp.gt (fp.mul RNE (fp.neg x9) (fp.neg x6)) (fp.neg (fp.sub RNE x11 x14))))
(assert (fp.geq (fp.mul RNE (fp.add RNE x11 x1) (fp.neg x7)) (fp.sub RNE (fp.sub RNE x6 x13) (fp.sub RNE x10 x4))))
(assert (fp.lt (fp.add RNE (fp.sub RNE x3 x5) (fp.add RNE x3 x7)) (fp.sub RNE (fp.add RNE x7 x13) (fp.add RNE x7 x7))))
(assert (fp.geq (fp.div RNE (fp.mul RNE x11 x8) (fp.sub RNE x8 x5)) (fp.div RNE (fp.sub RNE x2 x2) (fp.sub RNE x0 x6))))
(assert (fp.geq (fp.div RNE (fp.add RNE x7 x5) (fp.div RNE x4 x4)) (fp.add RNE (fp.add RNE x0 x6) (fp.neg x0))))
(assert (fp.geq (fp.div RNE (fp.neg x10) (fp.div RNE x7 x9)) (fp.div RNE (fp.mul RNE x3 x7) (fp.sub RNE x9 x14))))
(check-sat)
