db/data/16742674527630184717998200492635422835.z3.out
-------------------
2500.219861287
